N = 6;
H = 5;
T = 2;

avail = array3d(1..N, 1..H, 1..T, [10, 9, 5, 2, 0, 1, 6, 8, 5, 10, 5, 9, 3, 0, 0, 10, 4, 2, 8, 6, 0, 0, 10, 0, 3, 3, 8, 10, 10, 8, 5, 5, 8, 3, 9, 3, 10, 9, 8, 6, 3, 4, 10, 3, 6, 3, 2, 1, 8, 3, 10, 5, 5, 3, 2, 10, 10, 0, 7, 3]);

r = array2d(1..H, 1..T, [2, 3, 2, 0, 2, 2, 3, 2, 3, 1]);
